(set-info :smt-lib-version 2.6)
(set-logic QF_NIA)
(set-info :source |
     Constraint systems stating that a matrix interpretation is
     compatible with a rewriting system (weakly compatible with
     all rules, strictly compatible with at least one).

     Contributed by Johannes Waldmann at HTKW Leipzig.
   |)
(set-info :category "crafted")
(set-info :status sat)
(declare-fun n0 () Int)
(assert (>= n0 0))
(declare-fun n1 () Int)
(assert (>= n1 0))
(declare-fun n2 () Int)
(assert (>= n2 0))
(declare-fun n3 () Int)
(assert (>= n3 0))
(declare-fun n4 () Int)
(assert (>= n4 0))
(declare-fun n5 () Int)
(assert (>= n5 0))
(assert (>= n2 1))
(declare-fun n6 () Int)
(assert (>= n6 0))
(declare-fun n7 () Int)
(assert (>= n7 0))
(declare-fun n8 () Int)
(assert (>= n8 0))
(declare-fun n9 () Int)
(assert (>= n9 0))
(declare-fun n10 () Int)
(assert (>= n10 0))
(declare-fun n11 () Int)
(assert (>= n11 0))
(assert (>= n8 1))
(declare-fun n12 () Int)
(assert (>= n12 0))
(declare-fun n13 () Int)
(assert (>= n13 0))
(declare-fun n14 () Int)
(assert (>= n14 0))
(declare-fun n15 () Int)
(assert (>= n15 0))
(declare-fun n16 () Int)
(assert (>= n16 0))
(declare-fun n17 () Int)
(assert (>= n17 0))
(assert (>= n14 1))
(declare-fun n18 () Int)
(assert (>= n18 0))
(declare-fun n19 () Int)
(assert (>= n19 0))
(declare-fun n20 () Int)
(assert (>= n20 0))
(declare-fun n21 () Int)
(assert (>= n21 0))
(declare-fun n22 () Int)
(assert (>= n22 0))
(declare-fun n23 () Int)
(assert (>= n23 0))
(assert (>= n20 1))
(declare-fun n24 () Int)
(assert (>= n24 0))
(declare-fun n25 () Int)
(assert (>= n25 0))
(declare-fun n26 () Int)
(assert (>= n26 0))
(declare-fun n27 () Int)
(assert (>= n27 0))
(declare-fun n28 () Int)
(assert (>= n28 0))
(declare-fun n29 () Int)
(assert (>= n29 0))
(assert (>= n26 1))
(declare-fun n30 () Int)
(assert (>= n30 0))
(declare-fun n31 () Int)
(assert (>= n31 0))
(declare-fun n32 () Int)
(assert (>= n32 0))
(declare-fun n33 () Int)
(assert (>= n33 0))
(declare-fun n34 () Int)
(assert (>= n34 0))
(declare-fun n35 () Int)
(assert (>= n35 0))
(assert (>= n32 1))
(declare-fun n36 () Int)
(assert (= n36 (* n20 n18)))
(declare-fun n37 () Int)
(assert (= n37 (* n21 n19)))
(declare-fun n38 () Int)
(assert (= n38 (* n22 n18)))
(declare-fun n39 () Int)
(assert (= n39 (* n23 n19)))
(declare-fun n40 () Int)
(assert (= n40 (+ n36 n37)))
(declare-fun n41 () Int)
(assert (= n41 (+ n38 n39)))
(declare-fun n42 () Int)
(assert (= n42 (+ n18 n40)))
(declare-fun n43 () Int)
(assert (= n43 (+ n19 n41)))
(declare-fun n44 () Int)
(assert (= n44 (* n20 n20)))
(declare-fun n45 () Int)
(assert (= n45 (* n21 n22)))
(declare-fun n46 () Int)
(assert (= n46 (* n20 n21)))
(declare-fun n47 () Int)
(assert (= n47 (* n21 n23)))
(declare-fun n48 () Int)
(assert (= n48 (* n22 n20)))
(declare-fun n49 () Int)
(assert (= n49 (* n23 n22)))
(declare-fun n50 () Int)
(assert (= n50 (* n22 n21)))
(declare-fun n51 () Int)
(assert (= n51 (* n23 n23)))
(declare-fun n52 () Int)
(assert (= n52 (+ n44 n45)))
(declare-fun n53 () Int)
(assert (= n53 (+ n46 n47)))
(declare-fun n54 () Int)
(assert (= n54 (+ n48 n49)))
(declare-fun n55 () Int)
(assert (= n55 (+ n50 n51)))
(declare-fun n56 () Int)
(assert (= n56 (* n52 n18)))
(declare-fun n57 () Int)
(assert (= n57 (* n53 n19)))
(declare-fun n58 () Int)
(assert (= n58 (* n54 n18)))
(declare-fun n59 () Int)
(assert (= n59 (* n55 n19)))
(declare-fun n60 () Int)
(assert (= n60 (+ n56 n57)))
(declare-fun n61 () Int)
(assert (= n61 (+ n58 n59)))
(declare-fun n62 () Int)
(assert (= n62 (+ n42 n60)))
(declare-fun n63 () Int)
(assert (= n63 (+ n43 n61)))
(declare-fun n64 () Int)
(assert (= n64 (* n52 n20)))
(declare-fun n65 () Int)
(assert (= n65 (* n53 n22)))
(declare-fun n66 () Int)
(assert (= n66 (* n52 n21)))
(declare-fun n67 () Int)
(assert (= n67 (* n53 n23)))
(declare-fun n68 () Int)
(assert (= n68 (* n54 n20)))
(declare-fun n69 () Int)
(assert (= n69 (* n55 n22)))
(declare-fun n70 () Int)
(assert (= n70 (* n54 n21)))
(declare-fun n71 () Int)
(assert (= n71 (* n55 n23)))
(declare-fun n72 () Int)
(assert (= n72 (+ n64 n65)))
(declare-fun n73 () Int)
(assert (= n73 (+ n66 n67)))
(declare-fun n74 () Int)
(assert (= n74 (+ n68 n69)))
(declare-fun n75 () Int)
(assert (= n75 (+ n70 n71)))
(declare-fun n76 () Int)
(assert (= n76 (* n20 n0)))
(declare-fun n77 () Int)
(assert (= n77 (* n21 n1)))
(declare-fun n78 () Int)
(assert (= n78 (* n22 n0)))
(declare-fun n79 () Int)
(assert (= n79 (* n23 n1)))
(declare-fun n80 () Int)
(assert (= n80 (+ n76 n77)))
(declare-fun n81 () Int)
(assert (= n81 (+ n78 n79)))
(declare-fun n82 () Int)
(assert (= n82 (+ n18 n80)))
(declare-fun n83 () Int)
(assert (= n83 (+ n19 n81)))
(declare-fun n84 () Int)
(assert (= n84 (* n20 n2)))
(declare-fun n85 () Int)
(assert (= n85 (* n21 n4)))
(declare-fun n86 () Int)
(assert (= n86 (* n20 n3)))
(declare-fun n87 () Int)
(assert (= n87 (* n21 n5)))
(declare-fun n88 () Int)
(assert (= n88 (* n22 n2)))
(declare-fun n89 () Int)
(assert (= n89 (* n23 n4)))
(declare-fun n90 () Int)
(assert (= n90 (* n22 n3)))
(declare-fun n91 () Int)
(assert (= n91 (* n23 n5)))
(declare-fun n92 () Int)
(assert (= n92 (+ n84 n85)))
(declare-fun n93 () Int)
(assert (= n93 (+ n86 n87)))
(declare-fun n94 () Int)
(assert (= n94 (+ n88 n89)))
(declare-fun n95 () Int)
(assert (= n95 (+ n90 n91)))
(declare-fun n96 () Int)
(assert (= n96 (* n14 n12)))
(declare-fun n97 () Int)
(assert (= n97 (* n15 n13)))
(declare-fun n98 () Int)
(assert (= n98 (* n16 n12)))
(declare-fun n99 () Int)
(assert (= n99 (* n17 n13)))
(declare-fun n100 () Int)
(assert (= n100 (+ n96 n97)))
(declare-fun n101 () Int)
(assert (= n101 (+ n98 n99)))
(declare-fun n102 () Int)
(assert (= n102 (+ n12 n100)))
(declare-fun n103 () Int)
(assert (= n103 (+ n13 n101)))
(declare-fun n104 () Int)
(assert (= n104 (* n14 n14)))
(declare-fun n105 () Int)
(assert (= n105 (* n15 n16)))
(declare-fun n106 () Int)
(assert (= n106 (* n14 n15)))
(declare-fun n107 () Int)
(assert (= n107 (* n15 n17)))
(declare-fun n108 () Int)
(assert (= n108 (* n16 n14)))
(declare-fun n109 () Int)
(assert (= n109 (* n17 n16)))
(declare-fun n110 () Int)
(assert (= n110 (* n16 n15)))
(declare-fun n111 () Int)
(assert (= n111 (* n17 n17)))
(declare-fun n112 () Int)
(assert (= n112 (+ n104 n105)))
(declare-fun n113 () Int)
(assert (= n113 (+ n106 n107)))
(declare-fun n114 () Int)
(assert (= n114 (+ n108 n109)))
(declare-fun n115 () Int)
(assert (= n115 (+ n110 n111)))
(assert (>= n102 n62))
(assert (>= n103 n63))
(assert (>= n112 n72))
(assert (>= n113 n73))
(assert (>= n114 n74))
(assert (>= n115 n75))
(assert (>= n12 n30))
(assert (>= n13 n31))
(assert (>= n14 n32))
(assert (>= n15 n33))
(assert (>= n16 n34))
(assert (>= n17 n35))
(declare-fun n116 () Int)
(assert (= n116 (* n14 n24)))
(declare-fun n117 () Int)
(assert (= n117 (* n15 n25)))
(declare-fun n118 () Int)
(assert (= n118 (* n16 n24)))
(declare-fun n119 () Int)
(assert (= n119 (* n17 n25)))
(declare-fun n120 () Int)
(assert (= n120 (+ n116 n117)))
(declare-fun n121 () Int)
(assert (= n121 (+ n118 n119)))
(declare-fun n122 () Int)
(assert (= n122 (+ n12 n120)))
(declare-fun n123 () Int)
(assert (= n123 (+ n13 n121)))
(declare-fun n124 () Int)
(assert (= n124 (* n14 n26)))
(declare-fun n125 () Int)
(assert (= n125 (* n15 n28)))
(declare-fun n126 () Int)
(assert (= n126 (* n14 n27)))
(declare-fun n127 () Int)
(assert (= n127 (* n15 n29)))
(declare-fun n128 () Int)
(assert (= n128 (* n16 n26)))
(declare-fun n129 () Int)
(assert (= n129 (* n17 n28)))
(declare-fun n130 () Int)
(assert (= n130 (* n16 n27)))
(declare-fun n131 () Int)
(assert (= n131 (* n17 n29)))
(declare-fun n132 () Int)
(assert (= n132 (+ n124 n125)))
(declare-fun n133 () Int)
(assert (= n133 (+ n126 n127)))
(declare-fun n134 () Int)
(assert (= n134 (+ n128 n129)))
(declare-fun n135 () Int)
(assert (= n135 (+ n130 n131)))
(assert (>= n42 n122))
(assert (>= n43 n123))
(assert (>= n52 n132))
(assert (>= n53 n133))
(assert (>= n54 n134))
(assert (>= n55 n135))
(declare-fun n136 () Int)
(assert (= n136 (* n32 n12)))
(declare-fun n137 () Int)
(assert (= n137 (* n33 n13)))
(declare-fun n138 () Int)
(assert (= n138 (* n34 n12)))
(declare-fun n139 () Int)
(assert (= n139 (* n35 n13)))
(declare-fun n140 () Int)
(assert (= n140 (+ n136 n137)))
(declare-fun n141 () Int)
(assert (= n141 (+ n138 n139)))
(declare-fun n142 () Int)
(assert (= n142 (+ n30 n140)))
(declare-fun n143 () Int)
(assert (= n143 (+ n31 n141)))
(declare-fun n144 () Int)
(assert (= n144 (* n32 n14)))
(declare-fun n145 () Int)
(assert (= n145 (* n33 n16)))
(declare-fun n146 () Int)
(assert (= n146 (* n32 n15)))
(declare-fun n147 () Int)
(assert (= n147 (* n33 n17)))
(declare-fun n148 () Int)
(assert (= n148 (* n34 n14)))
(declare-fun n149 () Int)
(assert (= n149 (* n35 n16)))
(declare-fun n150 () Int)
(assert (= n150 (* n34 n15)))
(declare-fun n151 () Int)
(assert (= n151 (* n35 n17)))
(declare-fun n152 () Int)
(assert (= n152 (+ n144 n145)))
(declare-fun n153 () Int)
(assert (= n153 (+ n146 n147)))
(declare-fun n154 () Int)
(assert (= n154 (+ n148 n149)))
(declare-fun n155 () Int)
(assert (= n155 (+ n150 n151)))
(assert (>= n62 n142))
(assert (>= n63 n143))
(assert (>= n72 n152))
(assert (>= n73 n153))
(assert (>= n74 n154))
(assert (>= n75 n155))
(declare-fun n156 () Int)
(assert (= n156 (* n2 n30)))
(declare-fun n157 () Int)
(assert (= n157 (* n3 n31)))
(declare-fun n158 () Int)
(assert (= n158 (* n4 n30)))
(declare-fun n159 () Int)
(assert (= n159 (* n5 n31)))
(declare-fun n160 () Int)
(assert (= n160 (+ n156 n157)))
(declare-fun n161 () Int)
(assert (= n161 (+ n158 n159)))
(declare-fun n162 () Int)
(assert (= n162 (+ n0 n160)))
(declare-fun n163 () Int)
(assert (= n163 (+ n1 n161)))
(declare-fun n164 () Int)
(assert (= n164 (* n2 n32)))
(declare-fun n165 () Int)
(assert (= n165 (* n3 n34)))
(declare-fun n166 () Int)
(assert (= n166 (* n2 n33)))
(declare-fun n167 () Int)
(assert (= n167 (* n3 n35)))
(declare-fun n168 () Int)
(assert (= n168 (* n4 n32)))
(declare-fun n169 () Int)
(assert (= n169 (* n5 n34)))
(declare-fun n170 () Int)
(assert (= n170 (* n4 n33)))
(declare-fun n171 () Int)
(assert (= n171 (* n5 n35)))
(declare-fun n172 () Int)
(assert (= n172 (+ n164 n165)))
(declare-fun n173 () Int)
(assert (= n173 (+ n166 n167)))
(declare-fun n174 () Int)
(assert (= n174 (+ n168 n169)))
(declare-fun n175 () Int)
(assert (= n175 (+ n170 n171)))
(assert (>= n24 n162))
(assert (>= n25 n163))
(assert (>= n26 n172))
(assert (>= n27 n173))
(assert (>= n28 n174))
(assert (>= n29 n175))
(declare-fun n176 () Int)
(assert (= n176 (* n92 n6)))
(declare-fun n177 () Int)
(assert (= n177 (* n93 n7)))
(declare-fun n178 () Int)
(assert (= n178 (* n94 n6)))
(declare-fun n179 () Int)
(assert (= n179 (* n95 n7)))
(declare-fun n180 () Int)
(assert (= n180 (+ n176 n177)))
(declare-fun n181 () Int)
(assert (= n181 (+ n178 n179)))
(declare-fun n182 () Int)
(assert (= n182 (+ n82 n180)))
(declare-fun n183 () Int)
(assert (= n183 (+ n83 n181)))
(declare-fun n184 () Int)
(assert (= n184 (* n92 n8)))
(declare-fun n185 () Int)
(assert (= n185 (* n93 n10)))
(declare-fun n186 () Int)
(assert (= n186 (* n92 n9)))
(declare-fun n187 () Int)
(assert (= n187 (* n93 n11)))
(declare-fun n188 () Int)
(assert (= n188 (* n94 n8)))
(declare-fun n189 () Int)
(assert (= n189 (* n95 n10)))
(declare-fun n190 () Int)
(assert (= n190 (* n94 n9)))
(declare-fun n191 () Int)
(assert (= n191 (* n95 n11)))
(declare-fun n192 () Int)
(assert (= n192 (+ n184 n185)))
(declare-fun n193 () Int)
(assert (= n193 (+ n186 n187)))
(declare-fun n194 () Int)
(assert (= n194 (+ n188 n189)))
(declare-fun n195 () Int)
(assert (= n195 (+ n190 n191)))
(assert (>= n30 n182))
(assert (>= n31 n183))
(assert (>= n32 n192))
(assert (>= n33 n193))
(assert (>= n34 n194))
(assert (>= n35 n195))
(assert (or (> n102 n62) (> n12 n30) (> n42 n122) (> n62 n142) (> n24 n162) (> n30 n182)))
(assert (<= n0 100))
(assert (<= n1 100))
(assert (<= n10 100))
(assert (<= 0 n100))
(assert (<= n100 100))
(assert (<= 0 n101))
(assert (<= n101 100))
(assert (<= 0 n102))
(assert (<= n102 100))
(assert (<= 0 n103))
(assert (<= n103 100))
(assert (<= 0 n104))
(assert (<= n104 100))
(assert (<= 0 n105))
(assert (<= n105 100))
(assert (<= 0 n106))
(assert (<= n106 100))
(assert (<= 0 n107))
(assert (<= n107 100))
(assert (<= 0 n108))
(assert (<= n108 100))
(assert (<= 0 n109))
(assert (<= n109 100))
(assert (<= n11 100))
(assert (<= 0 n110))
(assert (<= n110 100))
(assert (<= 0 n111))
(assert (<= n111 100))
(assert (<= 0 n112))
(assert (<= n112 100))
(assert (<= 0 n113))
(assert (<= n113 100))
(assert (<= 0 n114))
(assert (<= n114 100))
(assert (<= 0 n115))
(assert (<= n115 100))
(assert (<= 0 n116))
(assert (<= n116 100))
(assert (<= 0 n117))
(assert (<= n117 100))
(assert (<= 0 n118))
(assert (<= n118 100))
(assert (<= 0 n119))
(assert (<= n119 100))
(assert (<= n12 100))
(assert (<= 0 n120))
(assert (<= n120 100))
(assert (<= 0 n121))
(assert (<= n121 100))
(assert (<= 0 n122))
(assert (<= n122 100))
(assert (<= 0 n123))
(assert (<= n123 100))
(assert (<= 0 n124))
(assert (<= n124 100))
(assert (<= 0 n125))
(assert (<= n125 100))
(assert (<= 0 n126))
(assert (<= n126 100))
(assert (<= 0 n127))
(assert (<= n127 100))
(assert (<= 0 n128))
(assert (<= n128 100))
(assert (<= 0 n129))
(assert (<= n129 100))
(assert (<= n13 100))
(assert (<= 0 n130))
(assert (<= n130 100))
(assert (<= 0 n131))
(assert (<= n131 100))
(assert (<= 0 n132))
(assert (<= n132 100))
(assert (<= 0 n133))
(assert (<= n133 100))
(assert (<= 0 n134))
(assert (<= n134 100))
(assert (<= 0 n135))
(assert (<= n135 100))
(assert (<= 0 n136))
(assert (<= n136 100))
(assert (<= 0 n137))
(assert (<= n137 100))
(assert (<= 0 n138))
(assert (<= n138 100))
(assert (<= 0 n139))
(assert (<= n139 100))
(assert (<= n14 100))
(assert (<= 0 n140))
(assert (<= n140 100))
(assert (<= 0 n141))
(assert (<= n141 100))
(assert (<= 0 n142))
(assert (<= n142 100))
(assert (<= 0 n143))
(assert (<= n143 100))
(assert (<= 0 n144))
(assert (<= n144 100))
(assert (<= 0 n145))
(assert (<= n145 100))
(assert (<= 0 n146))
(assert (<= n146 100))
(assert (<= 0 n147))
(assert (<= n147 100))
(assert (<= 0 n148))
(assert (<= n148 100))
(assert (<= 0 n149))
(assert (<= n149 100))
(assert (<= n15 100))
(assert (<= 0 n150))
(assert (<= n150 100))
(assert (<= 0 n151))
(assert (<= n151 100))
(assert (<= 0 n152))
(assert (<= n152 100))
(assert (<= 0 n153))
(assert (<= n153 100))
(assert (<= 0 n154))
(assert (<= n154 100))
(assert (<= 0 n155))
(assert (<= n155 100))
(assert (<= 0 n156))
(assert (<= n156 100))
(assert (<= 0 n157))
(assert (<= n157 100))
(assert (<= 0 n158))
(assert (<= n158 100))
(assert (<= 0 n159))
(assert (<= n159 100))
(assert (<= n16 100))
(assert (<= 0 n160))
(assert (<= n160 100))
(assert (<= 0 n161))
(assert (<= n161 100))
(assert (<= 0 n162))
(assert (<= n162 100))
(assert (<= 0 n163))
(assert (<= n163 100))
(assert (<= 0 n164))
(assert (<= n164 100))
(assert (<= 0 n165))
(assert (<= n165 100))
(assert (<= 0 n166))
(assert (<= n166 100))
(assert (<= 0 n167))
(assert (<= n167 100))
(assert (<= 0 n168))
(assert (<= n168 100))
(assert (<= 0 n169))
(assert (<= n169 100))
(assert (<= n17 100))
(assert (<= 0 n170))
(assert (<= n170 100))
(assert (<= 0 n171))
(assert (<= n171 100))
(assert (<= 0 n172))
(assert (<= n172 100))
(assert (<= 0 n173))
(assert (<= n173 100))
(assert (<= 0 n174))
(assert (<= n174 100))
(assert (<= 0 n175))
(assert (<= n175 100))
(assert (<= 0 n176))
(assert (<= n176 100))
(assert (<= 0 n177))
(assert (<= n177 100))
(assert (<= 0 n178))
(assert (<= n178 100))
(assert (<= 0 n179))
(assert (<= n179 100))
(assert (<= n18 100))
(assert (<= 0 n180))
(assert (<= n180 100))
(assert (<= 0 n181))
(assert (<= n181 100))
(assert (<= 0 n182))
(assert (<= n182 100))
(assert (<= 0 n183))
(assert (<= n183 100))
(assert (<= 0 n184))
(assert (<= n184 100))
(assert (<= 0 n185))
(assert (<= n185 100))
(assert (<= 0 n186))
(assert (<= n186 100))
(assert (<= 0 n187))
(assert (<= n187 100))
(assert (<= 0 n188))
(assert (<= n188 100))
(assert (<= 0 n189))
(assert (<= n189 100))
(assert (<= n19 100))
(assert (<= 0 n190))
(assert (<= n190 100))
(assert (<= 0 n191))
(assert (<= n191 100))
(assert (<= 0 n192))
(assert (<= n192 100))
(assert (<= 0 n193))
(assert (<= n193 100))
(assert (<= 0 n194))
(assert (<= n194 100))
(assert (<= 0 n195))
(assert (<= n195 100))
(assert (<= n2 100))
(assert (<= n20 100))
(assert (<= n21 100))
(assert (<= n22 100))
(assert (<= n23 100))
(assert (<= n24 100))
(assert (<= n25 100))
(assert (<= n26 100))
(assert (<= n27 100))
(assert (<= n28 100))
(assert (<= n29 100))
(assert (<= n3 100))
(assert (<= n30 100))
(assert (<= n31 100))
(assert (<= n32 100))
(assert (<= n33 100))
(assert (<= n34 100))
(assert (<= n35 100))
(assert (<= 0 n36))
(assert (<= n36 100))
(assert (<= 0 n37))
(assert (<= n37 100))
(assert (<= 0 n38))
(assert (<= n38 100))
(assert (<= 0 n39))
(assert (<= n39 100))
(assert (<= n4 100))
(assert (<= 0 n40))
(assert (<= n40 100))
(assert (<= 0 n41))
(assert (<= n41 100))
(assert (<= 0 n42))
(assert (<= n42 100))
(assert (<= 0 n43))
(assert (<= n43 100))
(assert (<= 0 n44))
(assert (<= n44 100))
(assert (<= 0 n45))
(assert (<= n45 100))
(assert (<= 0 n46))
(assert (<= n46 100))
(assert (<= 0 n47))
(assert (<= n47 100))
(assert (<= 0 n48))
(assert (<= n48 100))
(assert (<= 0 n49))
(assert (<= n49 100))
(assert (<= n5 100))
(assert (<= 0 n50))
(assert (<= n50 100))
(assert (<= 0 n51))
(assert (<= n51 100))
(assert (<= 0 n52))
(assert (<= n52 100))
(assert (<= 0 n53))
(assert (<= n53 100))
(assert (<= 0 n54))
(assert (<= n54 100))
(assert (<= 0 n55))
(assert (<= n55 100))
(assert (<= 0 n56))
(assert (<= n56 100))
(assert (<= 0 n57))
(assert (<= n57 100))
(assert (<= 0 n58))
(assert (<= n58 100))
(assert (<= 0 n59))
(assert (<= n59 100))
(assert (<= n6 100))
(assert (<= 0 n60))
(assert (<= n60 100))
(assert (<= 0 n61))
(assert (<= n61 100))
(assert (<= 0 n62))
(assert (<= n62 100))
(assert (<= 0 n63))
(assert (<= n63 100))
(assert (<= 0 n64))
(assert (<= n64 100))
(assert (<= 0 n65))
(assert (<= n65 100))
(assert (<= 0 n66))
(assert (<= n66 100))
(assert (<= 0 n67))
(assert (<= n67 100))
(assert (<= 0 n68))
(assert (<= n68 100))
(assert (<= 0 n69))
(assert (<= n69 100))
(assert (<= n7 100))
(assert (<= 0 n70))
(assert (<= n70 100))
(assert (<= 0 n71))
(assert (<= n71 100))
(assert (<= 0 n72))
(assert (<= n72 100))
(assert (<= 0 n73))
(assert (<= n73 100))
(assert (<= 0 n74))
(assert (<= n74 100))
(assert (<= 0 n75))
(assert (<= n75 100))
(assert (<= 0 n76))
(assert (<= n76 100))
(assert (<= 0 n77))
(assert (<= n77 100))
(assert (<= 0 n78))
(assert (<= n78 100))
(assert (<= 0 n79))
(assert (<= n79 100))
(assert (<= n8 100))
(assert (<= 0 n80))
(assert (<= n80 100))
(assert (<= 0 n81))
(assert (<= n81 100))
(assert (<= 0 n82))
(assert (<= n82 100))
(assert (<= 0 n83))
(assert (<= n83 100))
(assert (<= 0 n84))
(assert (<= n84 100))
(assert (<= 0 n85))
(assert (<= n85 100))
(assert (<= 0 n86))
(assert (<= n86 100))
(assert (<= 0 n87))
(assert (<= n87 100))
(assert (<= 0 n88))
(assert (<= n88 100))
(assert (<= 0 n89))
(assert (<= n89 100))
(assert (<= n9 100))
(assert (<= 0 n90))
(assert (<= n90 100))
(assert (<= 0 n91))
(assert (<= n91 100))
(assert (<= 0 n92))
(assert (<= n92 100))
(assert (<= 0 n93))
(assert (<= n93 100))
(assert (<= 0 n94))
(assert (<= n94 100))
(assert (<= 0 n95))
(assert (<= n95 100))
(assert (<= 0 n96))
(assert (<= n96 100))
(assert (<= 0 n97))
(assert (<= n97 100))
(assert (<= 0 n98))
(assert (<= n98 100))
(assert (<= 0 n99))
(assert (<= n99 100))
(check-sat)
(exit)
